(set-option :produce-models true)
 (set-logic ALL)
(declare-fun *status () String)
(declare-fun *@ss749 () String )
(declare-fun *@ss7490 () String )
(declare-fun *@sstring749 () String )
(assert (not (not (= (str.len *@ss7490) 3))  ) )
(assert (not (< (str.to_int *@ss7490) 100)  ) )
(assert (not (< (str.len *status) 4)  ) )
(assert (not (= *status[3] " "))  )
(assert (= *status (str.++  *@ss7490 *@sstring749 )))
(check-sat)
 (get-model)
